(set-logic QF_LIA)
(set-info :ran/ran2.smt2)
(set-info :smt-lib-version 2.0)
(declare-fun x1 () Int)
(declare-fun x2 () Int)
(declare-fun x3 () Int)
(declare-fun x4 () Int)
(declare-fun x5 () Int)
(declare-fun x6 () Int)
(declare-fun x7 () Int)
(assert (<= (+ (* 3 x1) (* (- 3) x2) (* 2 x3) (* (- 6) x4) (* (- 4) x5) (* (- 9) x6) (* (- 6) x7) ) (- 259)))
(assert (<= (+ (* (- 3) x1) (* 5 x2) (* (- 9) x3) (* 4 x4) (* (- 7) x5) (* 9 x6) (* (- 5) x7) ) (- 208)))
(assert (<= (+ (* 1 x1) (* (- 8) x2) (* (- 1) x3) (* 9 x4) (* (- 3) x5) (* (- 1) x6) (* (- 2) x7) ) 114))
(assert (<= (+ (* 8 x1) (* 9 x2) (* (- 6) x3) (* 8 x4) (* (- 9) x5) (* (- 9) x6) (* 6 x7) ) (- 5)))
(assert (<= (+ (* (- 2) x1) (* (- 4) x2) (* 6 x3) (* 5 x4) (* (- 3) x5) (* 8 x6) (* 8 x7) ) (- 150)))
(assert (<= (+ (* 3 x1) (* 8 x2) (* (- 5) x3) (* 6 x4) (* 4 x5) (* 0 x6) (* 5 x7) ) (- 101)))
(assert (<= (+ (* 2 x1) (* (- 9) x2) (* (- 9) x3) (* 8 x4) (* 0 x5) (* (- 1) x6) (* (- 1) x7) ) (- 112)))
(assert (<= (+ (* (- 3) x1) (* 1 x2) (* (- 7) x3) (* (- 4) x4) (* 2 x5) (* 8 x6) (* 8 x7) ) (- 16)))
(assert (<= (+ (* (- 7) x1) (* 1 x2) (* 0 x3) (* 0 x4) (* (- 1) x5) (* (- 4) x6) (* (- 8) x7) ) (- 199)))
(assert (<= (+ (* (- 7) x1) (* (- 3) x2) (* 5 x3) (* 5 x4) (* 6 x5) (* (- 3) x6) (* 8 x7) ) 197))
(assert (<= (+ (* (- 1) x1) (* 9 x2) (* (- 6) x3) (* 7 x4) (* (- 5) x5) (* 1 x6) (* (- 8) x7) ) (- 34)))
(assert (<= (+ (* 10 x1) (* (- 4) x2) (* 6 x3) (* 1 x4) (* (- 9) x5) (* 3 x6) (* (- 3) x7) ) 142))
(assert (<= (+ (* (- 9) x1) (* 7 x2) (* 2 x3) (* 0 x4) (* (- 8) x5) (* 4 x6) (* (- 1) x7) ) (- 144)))
(assert (<= (+ (* 10 x1) (* (- 8) x2) (* 9 x3) (* 5 x4) (* (- 1) x5) (* 6 x6) (* 10 x7) ) 170))
(assert (<= (+ (* 1 x1) (* 0 x2) (* 0 x3) (* 0 x4) (* 0 x5) (* 0 x6) (* 0 x7) ) 281))
(assert (<= (+ (* (- 1) x1) (* 0 x2) (* 0 x3) (* 0 x4) (* 0 x5) (* 0 x6) (* 0 x7) ) 281))
(assert (<= (+ (* 0 x1) (* 1 x2) (* 0 x3) (* 0 x4) (* 0 x5) (* 0 x6) (* 0 x7) ) 281))
(assert (<= (+ (* 0 x1) (* (- 1) x2) (* 0 x3) (* 0 x4) (* 0 x5) (* 0 x6) (* 0 x7) ) 281))
(assert (<= (+ (* 0 x1) (* 0 x2) (* 1 x3) (* 0 x4) (* 0 x5) (* 0 x6) (* 0 x7) ) 281))
(assert (<= (+ (* 0 x1) (* 0 x2) (* (- 1) x3) (* 0 x4) (* 0 x5) (* 0 x6) (* 0 x7) ) 281))
(assert (<= (+ (* 0 x1) (* 0 x2) (* 0 x3) (* 1 x4) (* 0 x5) (* 0 x6) (* 0 x7) ) 281))
(assert (<= (+ (* 0 x1) (* 0 x2) (* 0 x3) (* (- 1) x4) (* 0 x5) (* 0 x6) (* 0 x7) ) 281))
(assert (<= (+ (* 0 x1) (* 0 x2) (* 0 x3) (* 0 x4) (* 1 x5) (* 0 x6) (* 0 x7) ) 281))
(assert (<= (+ (* 0 x1) (* 0 x2) (* 0 x3) (* 0 x4) (* (- 1) x5) (* 0 x6) (* 0 x7) ) 281))
(assert (<= (+ (* 0 x1) (* 0 x2) (* 0 x3) (* 0 x4) (* 0 x5) (* 1 x6) (* 0 x7) ) 281))
(assert (<= (+ (* 0 x1) (* 0 x2) (* 0 x3) (* 0 x4) (* 0 x5) (* (- 1) x6) (* 0 x7) ) 281))
(assert (<= (+ (* 0 x1) (* 0 x2) (* 0 x3) (* 0 x4) (* 0 x5) (* 0 x6) (* 1 x7) ) 281))
(assert (<= (+ (* 0 x1) (* 0 x2) (* 0 x3) (* 0 x4) (* 0 x5) (* 0 x6) (* (- 1) x7) ) 281))
